[2026-03-24T16:32:10.922Z] Pipeline "set_vm-3-t2_vm-3-t2_s001_g002" → 2026_03_24_16_32_10_set_vm-3-t2_vm-3-t2_s001_g002_max.sol
Set parameter Username
Set parameter LicenseID to value 2796068
Set parameter LogFile to value "gurobi.log"
Using license file /opt/gurobi/gurobi.lic
Academic license - for non-commercial use only - expires 2027-03-23

Gurobi Optimizer version 13.0.1 build v13.0.1rc0 (linux64 - "Ubuntu 24.04.4 LTS")
Copyright (c) 2026, Gurobi Optimization, LLC

Warning: Duplicate section found (read 'binary') - Is a variable name equal to an LP file format keyword?
Warning: Duplicate section found (read 'binary') - Is a variable name equal to an LP file format keyword?
Warning: Duplicate section found (read 'binary') - Is a variable name equal to an LP file format keyword?
Warning: Duplicate section found (read 'binary') - Is a variable name equal to an LP file format keyword?
Warning: Duplicate section found (read 'binary') - Is a variable name equal to an LP file format keyword?
Warning: Duplicate section found (read 'binary') - Is a variable name equal to an LP file format keyword?
Warning: Duplicate section found (read 'binary') - Is a variable name equal to an LP file format keyword?
Warning: Duplicate section found (read 'binary') - Is a variable name equal to an LP file format keyword?
Warning: Duplicate section found (read 'binary') - Is a variable name equal to an LP file format keyword?
Warning: Duplicate section found (read 'binary') - Is a variable name equal to an LP file format keyword?
Warning: Further warnings of this type will be omitted.
Read LP format model from file /root/bgw/data/uploads/2026_03_24_16_32_10_set_vm-3-t2_vm-3-t2_s001_g002_max.lp
Reading time = 0.00 seconds
: 562 rows, 110 columns, 1609 nonzeros

Using Gurobi shared library /opt/gurobi1301/linux64/lib/libgurobi.so.13.0.1

CPU model: AMD EPYC-Genoa Processor, instruction set [SSE2|AVX|AVX2|AVX512]
Thread count: 16 physical cores, 16 logical processors, using up to 16 threads

Optimize a model with 562 rows, 110 columns and 1609 nonzeros (Max)
Model fingerprint: 0xc21f70d6
Model has 17 linear objective coefficients
Variable types: 28 continuous, 82 integer (82 binary)
Coefficient statistics:
  Matrix range     [1e+00, 1e+01]
  Objective range  [1e+00, 1e+00]
  Bounds range     [1e+00, 1e+00]
  RHS range        [1e+00, 1e+01]

Found heuristic solution: objective 17.0000000
Presolve removed 202 rows and 37 columns
Presolve time: 0.00s
Presolved: 360 rows, 73 columns, 1128 nonzeros
Variable types: 0 continuous, 73 integer (67 binary)
Found heuristic solution: objective 31.0000000

Root relaxation: objective 9.000000e+01, 45 iterations, 0.00 seconds (0.00 work units)

    Nodes    |    Current Node    |     Objective Bounds      |     Work
 Expl Unexpl |  Obj  Depth IntInf | Incumbent    BestBd   Gap | It/Node Time

     0     0   90.00000    0   14   31.00000   90.00000   190%     -    0s
H    0     0                      38.0000000   90.00000   137%     -    0s
H    0     0                      39.0000000   90.00000   131%     -    0s
H    0     0                      46.0000000   90.00000  95.7%     -    0s
     0     0   90.00000    0   21   46.00000   90.00000  95.7%     -    0s
H    0     0                      47.0000000   90.00000  91.5%     -    0s
     0     0   83.00000    0   18   47.00000   83.00000  76.6%     -    0s
     0     0   83.00000    0   18   47.00000   83.00000  76.6%     -    0s
     0     0   83.00000    0   18   47.00000   83.00000  76.6%     -    0s
     0     0   83.00000    0   12   47.00000   83.00000  76.6%     -    0s
     0     0   83.00000    0   12   47.00000   83.00000  76.6%     -    0s
     0     0   83.00000    0   19   47.00000   83.00000  76.6%     -    0s
     0     0   83.00000    0   14   47.00000   83.00000  76.6%     -    0s
     0     0   82.77778    0   20   47.00000   82.77778  76.1%     -    0s
     0     0   82.77778    0   18   47.00000   82.77778  76.1%     -    0s
     0     0   82.00000    0   18   47.00000   82.00000  74.5%     -    0s
     0     0   82.00000    0   18   47.00000   82.00000  74.5%     -    0s
     0     0   81.44444    0   20   47.00000   81.44444  73.3%     -    0s
     0     0   81.44444    0   18   47.00000   81.44444  73.3%     -    0s
     0     0   81.44444    0   14   47.00000   81.44444  73.3%     -    0s
     0     0   80.66667    0   14   47.00000   80.66667  71.6%     -    0s
     0     0   80.66667    0   14   47.00000   80.66667  71.6%     -    0s
     0     2   80.66667    0   14   47.00000   80.66667  71.6%     -    0s

Cutting planes:
  Gomory: 1
  Lift-and-project: 4
  Cover: 5
  MIR: 1
  Inf proof: 11

Explored 1445 nodes (19287 simplex iterations) in 0.17 seconds (0.12 work units)
Thread count was 16 (of 16 available processors)

Solution count 6: 47 46 39 ... 17

Optimal solution found (tolerance 1.00e-04)
Best objective 4.700000000000e+01, best bound 4.700000000000e+01, gap 0.0000%

Wrote result file '/root/bgw/data/results/2026_03_24_16_32_10_set_vm-3-t2_vm-3-t2_s001_g002_max.sol'

